c 0.008419275283813477 (encode time in sec)
p cnf 249 712
1 2 3 4 5 13 0
1 2 3 4 -5 14 0
1 2 3 -4 5 10 0
1 2 3 -4 -5 15 0
1 2 -3 4 5 23 0
1 2 -3 4 -5 16 0
1 2 -3 -4 5 6 0
1 2 -3 -4 -5 7 0
1 -2 3 4 5 17 0
1 -2 3 4 -5 18 0
1 -2 3 -4 5 24 0
1 -2 3 -4 -5 8 0
1 -2 -3 4 5 25 0
1 -2 -3 4 -5 21 0
1 -2 -3 -4 5 22 0
1 -2 -3 -4 -5 19 0
-1 2 3 4 5 20 0
-1 2 3 4 -5 12 0
-1 2 3 -4 5 11 0
-1 2 3 -4 -5 9 0
-1 2 -3 4 5 0
-1 2 -3 4 -5 0
-1 2 -3 -4 5 0
-1 2 -3 -4 -5 0
-1 -2 3 4 5 0
-1 -2 3 4 -5 0
-1 -2 3 -4 5 0
-1 -2 3 -4 -5 0
-1 -2 -3 4 5 0
-1 -2 -3 4 -5 0
-1 -2 -3 -4 5 0
-1 -2 -3 -4 -5 0
26 1 2 3 4 5 27 0
26 1 2 3 4 -5 28 0
26 1 2 3 -4 5 53 0
26 1 2 3 -4 -5 29 0
26 1 2 -3 4 5 30 0
26 1 2 -3 4 -5 31 0
26 1 2 -3 -4 5 32 0
26 1 2 -3 -4 -5 33 0
26 1 -2 3 4 5 34 0
26 1 -2 3 4 -5 35 0
26 1 -2 3 -4 5 36 0
26 1 -2 3 -4 -5 49 0
26 1 -2 -3 4 5 42 0
26 1 -2 -3 4 -5 61 0
26 1 -2 -3 -4 5 51 0
26 1 -2 -3 -4 -5 41 0
26 -1 2 3 4 5 45 0
26 -1 2 3 4 -5 58 0
26 -1 2 3 -4 5 37 0
26 -1 2 3 -4 -5 46 0
-26 1 2 3 4 5 62 0
-26 1 2 3 4 -5 38 0
-26 1 2 3 -4 5 40 0
-26 1 2 3 -4 -5 54 0
-26 1 2 -3 4 5 63 0
-26 1 2 -3 4 -5 65 0
-26 1 2 -3 -4 5 47 0
-26 1 2 -3 -4 -5 39 0
-26 1 -2 3 4 5 57 0
-26 1 -2 3 4 -5 44 0
-26 1 -2 3 -4 5 52 0
-26 1 -2 3 -4 -5 59 0
-26 1 -2 -3 4 5 55 0
-26 1 -2 -3 4 -5 48 0
-26 1 -2 -3 -4 5 56 0
-26 1 -2 -3 -4 -5 64 0
-26 -1 2 3 4 5 43 0
-26 -1 2 3 4 -5 50 0
-26 -1 2 3 -4 5 37 0
-26 -1 2 3 -4 -5 60 0
66 67 68 69 26 1 2 3 4 5 70 0
66 67 68 69 26 1 2 3 4 -5 70 0
66 67 68 69 26 1 2 3 -4 5 207 0
66 67 68 69 26 1 2 3 -4 -5 100 0
66 67 68 69 26 1 2 -3 4 5 88 0
66 67 68 69 26 1 2 -3 4 -5 120 0
66 67 68 69 26 1 2 -3 -4 5 158 0
66 67 68 69 26 1 2 -3 -4 -5 218 0
66 67 68 69 26 1 -2 3 4 5 236 0
66 67 68 69 26 1 -2 3 4 -5 116 0
66 67 68 69 26 1 -2 3 -4 5 162 0
66 67 68 69 26 1 -2 3 -4 -5 208 0
66 67 68 69 26 1 -2 -3 4 5 205 0
66 67 68 69 26 1 -2 -3 4 -5 244 0
66 67 68 69 26 1 -2 -3 -4 5 94 0
66 67 68 69 26 1 -2 -3 -4 -5 160 0
66 67 68 69 26 -1 2 3 4 5 121 0
66 67 68 69 26 -1 2 3 4 -5 122 0
66 67 68 69 26 -1 2 3 -4 5 238 0
66 67 68 69 26 -1 2 3 -4 -5 238 0
66 67 68 69 -26 1 2 3 4 5 100 0
66 67 68 69 -26 1 2 3 4 -5 175 0
66 67 68 69 -26 1 2 3 -4 5 134 0
66 67 68 69 -26 1 2 3 -4 -5 89 0
66 67 68 69 -26 1 2 -3 4 5 153 0
66 67 68 69 -26 1 2 -3 4 -5 109 0
66 67 68 69 -26 1 2 -3 -4 5 95 0
66 67 68 69 -26 1 2 -3 -4 -5 93 0
66 67 68 69 -26 1 -2 3 4 5 208 0
66 67 68 69 -26 1 -2 3 4 -5 227 0
66 67 68 69 -26 1 -2 3 -4 5 83 0
66 67 68 69 -26 1 -2 3 -4 -5 161 0
66 67 68 69 -26 1 -2 -3 4 5 128 0
66 67 68 69 -26 1 -2 -3 4 -5 101 0
66 67 68 69 -26 1 -2 -3 -4 5 226 0
66 67 68 69 -26 1 -2 -3 -4 -5 228 0
66 67 68 69 -26 -1 2 3 4 5 238 0
66 67 68 69 -26 -1 2 3 4 -5 70 0
66 67 68 69 -26 -1 2 3 -4 5 238 0
66 67 68 69 -26 -1 2 3 -4 -5 70 0
66 67 68 -69 26 1 2 3 4 5 70 0
66 67 68 -69 26 1 2 3 4 -5 70 0
66 67 68 -69 26 1 2 3 -4 5 207 0
66 67 68 -69 26 1 2 3 -4 -5 100 0
66 67 68 -69 26 1 2 -3 4 5 197 0
66 67 68 -69 26 1 2 -3 4 -5 120 0
66 67 68 -69 26 1 2 -3 -4 5 217 0
66 67 68 -69 26 1 2 -3 -4 -5 164 0
66 67 68 -69 26 1 -2 3 4 5 184 0
66 67 68 -69 26 1 -2 3 4 -5 117 0
66 67 68 -69 26 1 -2 3 -4 5 245 0
66 67 68 -69 26 1 -2 3 -4 -5 165 0
66 67 68 -69 26 1 -2 -3 4 5 118 0
66 67 68 -69 26 1 -2 -3 4 -5 213 0
66 67 68 -69 26 1 -2 -3 -4 5 112 0
66 67 68 -69 26 1 -2 -3 -4 -5 160 0
66 67 68 -69 26 -1 2 3 4 5 121 0
66 67 68 -69 26 -1 2 3 4 -5 122 0
66 67 68 -69 26 -1 2 3 -4 5 238 0
66 67 68 -69 26 -1 2 3 -4 -5 238 0
66 67 68 -69 -26 1 2 3 4 5 100 0
66 67 68 -69 -26 1 2 3 4 -5 175 0
66 67 68 -69 -26 1 2 3 -4 5 134 0
66 67 68 -69 -26 1 2 3 -4 -5 89 0
66 67 68 -69 -26 1 2 -3 4 5 153 0
66 67 68 -69 -26 1 2 -3 4 -5 109 0
66 67 68 -69 -26 1 2 -3 -4 5 113 0
66 67 68 -69 -26 1 2 -3 -4 -5 110 0
66 67 68 -69 -26 1 -2 3 4 5 169 0
66 67 68 -69 -26 1 -2 3 4 -5 143 0
66 67 68 -69 -26 1 -2 3 -4 5 96 0
66 67 68 -69 -26 1 -2 3 -4 -5 161 0
66 67 68 -69 -26 1 -2 -3 4 5 128 0
66 67 68 -69 -26 1 -2 -3 4 -5 123 0
66 67 68 -69 -26 1 -2 -3 -4 5 226 0
66 67 68 -69 -26 1 -2 -3 -4 -5 228 0
66 67 68 -69 -26 -1 2 3 4 5 238 0
66 67 68 -69 -26 -1 2 3 4 -5 70 0
66 67 68 -69 -26 -1 2 3 -4 5 238 0
66 67 68 -69 -26 -1 2 3 -4 -5 70 0
66 67 -68 69 26 1 2 3 4 5 70 0
66 67 -68 69 26 1 2 3 4 -5 70 0
66 67 -68 69 26 1 2 3 -4 5 207 0
66 67 -68 69 26 1 2 3 -4 -5 167 0
66 67 -68 69 26 1 2 -3 4 5 88 0
66 67 -68 69 26 1 2 -3 4 -5 209 0
66 67 -68 69 26 1 2 -3 -4 5 102 0
66 67 -68 69 26 1 2 -3 -4 -5 71 0
66 67 -68 69 26 1 -2 3 4 5 210 0
66 67 -68 69 26 1 -2 3 4 -5 90 0
66 67 -68 69 26 1 -2 3 -4 5 103 0
66 67 -68 69 26 1 -2 3 -4 -5 209 0
66 67 -68 69 26 1 -2 -3 4 5 135 0
66 67 -68 69 26 1 -2 -3 4 -5 166 0
66 67 -68 69 26 1 -2 -3 -4 5 168 0
66 67 -68 69 26 1 -2 -3 -4 -5 160 0
66 67 -68 69 26 -1 2 3 4 5 212 0
66 67 -68 69 26 -1 2 3 4 -5 122 0
66 67 -68 69 26 -1 2 3 -4 5 238 0
66 67 -68 69 26 -1 2 3 -4 -5 229 0
66 67 -68 69 -26 1 2 3 4 5 100 0
66 67 -68 69 -26 1 2 3 4 -5 185 0
66 67 -68 69 -26 1 2 3 -4 5 230 0
66 67 -68 69 -26 1 2 3 -4 -5 142 0
66 67 -68 69 -26 1 2 -3 4 5 104 0
66 67 -68 69 -26 1 2 -3 4 -5 124 0
66 67 -68 69 -26 1 2 -3 -4 5 105 0
66 67 -68 69 -26 1 2 -3 -4 -5 193 0
66 67 -68 69 -26 1 -2 3 4 5 165 0
66 67 -68 69 -26 1 -2 3 4 -5 74 0
66 67 -68 69 -26 1 -2 3 -4 5 114 0
66 67 -68 69 -26 1 -2 3 -4 -5 161 0
66 67 -68 69 -26 1 -2 -3 4 5 219 0
66 67 -68 69 -26 1 -2 -3 4 -5 101 0
66 67 -68 69 -26 1 -2 -3 -4 5 226 0
66 67 -68 69 -26 1 -2 -3 -4 -5 228 0
66 67 -68 69 -26 -1 2 3 4 5 238 0
66 67 -68 69 -26 -1 2 3 4 -5 70 0
66 67 -68 69 -26 -1 2 3 -4 5 238 0
66 67 -68 69 -26 -1 2 3 -4 -5 70 0
66 67 -68 -69 26 1 2 3 4 5 70 0
66 67 -68 -69 26 1 2 3 4 -5 70 0
66 67 -68 -69 26 1 2 3 -4 5 211 0
66 67 -68 -69 26 1 2 3 -4 -5 167 0
66 67 -68 -69 26 1 2 -3 4 5 99 0
66 67 -68 -69 26 1 2 -3 4 -5 72 0
66 67 -68 -69 26 1 2 -3 -4 5 75 0
66 67 -68 -69 26 1 2 -3 -4 -5 73 0
66 67 -68 -69 26 1 -2 3 4 5 126 0
66 67 -68 -69 26 1 -2 3 4 -5 125 0
66 67 -68 -69 26 1 -2 3 -4 5 214 0
66 67 -68 -69 26 1 -2 3 -4 -5 170 0
66 67 -68 -69 26 1 -2 -3 4 5 76 0
66 67 -68 -69 26 1 -2 -3 4 -5 77 0
66 67 -68 -69 26 1 -2 -3 -4 5 171 0
66 67 -68 -69 26 1 -2 -3 -4 -5 127 0
66 67 -68 -69 26 -1 2 3 4 5 78 0
66 67 -68 -69 26 -1 2 3 4 -5 172 0
66 67 -68 -69 26 -1 2 3 -4 5 238 0
66 67 -68 -69 26 -1 2 3 -4 -5 238 0
66 67 -68 -69 -26 1 2 3 4 5 144 0
66 67 -68 -69 -26 1 2 3 4 -5 186 0
66 67 -68 -69 -26 1 2 3 -4 5 230 0
66 67 -68 -69 -26 1 2 3 -4 -5 173 0
66 67 -68 -69 -26 1 2 -3 4 5 79 0
66 67 -68 -69 -26 1 2 -3 4 -5 145 0
66 67 -68 -69 -26 1 2 -3 -4 5 129 0
66 67 -68 -69 -26 1 2 -3 -4 -5 215 0
66 67 -68 -69 -26 1 -2 3 4 5 111 0
66 67 -68 -69 -26 1 -2 3 4 -5 108 0
66 67 -68 -69 -26 1 -2 3 -4 5 154 0
66 67 -68 -69 -26 1 -2 3 -4 -5 132 0
66 67 -68 -69 -26 1 -2 -3 4 5 231 0
66 67 -68 -69 -26 1 -2 -3 4 -5 142 0
66 67 -68 -69 -26 1 -2 -3 -4 5 146 0
66 67 -68 -69 -26 1 -2 -3 -4 -5 228 0
66 67 -68 -69 -26 -1 2 3 4 5 238 0
66 67 -68 -69 -26 -1 2 3 4 -5 70 0
66 67 -68 -69 -26 -1 2 3 -4 5 238 0
66 67 -68 -69 -26 -1 2 3 -4 -5 70 0
66 -67 68 69 26 1 2 3 4 5 70 0
66 -67 68 69 26 1 2 3 4 -5 70 0
66 -67 68 69 26 1 2 3 -4 5 176 0
66 -67 68 69 26 1 2 3 -4 -5 242 0
66 -67 68 69 26 1 2 -3 4 5 249 0
66 -67 68 69 26 1 2 -3 4 -5 216 0
66 -67 68 69 26 1 2 -3 -4 5 220 0
66 -67 68 69 26 1 2 -3 -4 -5 181 0
66 -67 68 69 26 1 -2 3 4 5 80 0
66 -67 68 69 26 1 -2 3 4 -5 130 0
66 -67 68 69 26 1 -2 3 -4 5 246 0
66 -67 68 69 26 1 -2 3 -4 -5 174 0
66 -67 68 69 26 1 -2 -3 4 5 203 0
66 -67 68 69 26 1 -2 -3 4 -5 225 0
66 -67 68 69 26 1 -2 -3 -4 5 139 0
66 -67 68 69 26 1 -2 -3 -4 -5 152 0
66 -67 68 69 26 -1 2 3 4 5 221 0
66 -67 68 69 26 -1 2 3 4 -5 172 0
66 -67 68 69 26 -1 2 3 -4 5 229 0
66 -67 68 69 26 -1 2 3 -4 -5 238 0
66 -67 68 69 -26 1 2 3 4 5 242 0
66 -67 68 69 -26 1 2 3 4 -5 186 0
66 -67 68 69 -26 1 2 3 -4 5 131 0
66 -67 68 69 -26 1 2 3 -4 -5 247 0
66 -67 68 69 -26 1 2 -3 4 5 212 0
66 -67 68 69 -26 1 2 -3 4 -5 147 0
66 -67 68 69 -26 1 2 -3 -4 5 187 0
66 -67 68 69 -26 1 2 -3 -4 -5 106 0
66 -67 68 69 -26 1 -2 3 4 5 133 0
66 -67 68 69 -26 1 -2 3 4 -5 148 0
66 -67 68 69 -26 1 -2 3 -4 5 97 0
66 -67 68 69 -26 1 -2 3 -4 -5 82 0
66 -67 68 69 -26 1 -2 -3 4 5 231 0
66 -67 68 69 -26 1 -2 -3 4 -5 188 0
66 -67 68 69 -26 1 -2 -3 -4 5 198 0
66 -67 68 69 -26 1 -2 -3 -4 -5 228 0
66 -67 68 69 -26 -1 2 3 4 5 238 0
66 -67 68 69 -26 -1 2 3 4 -5 70 0
66 -67 68 69 -26 -1 2 3 -4 5 238 0
66 -67 68 69 -26 -1 2 3 -4 -5 70 0
66 -67 68 -69 26 1 2 3 4 5 70 0
66 -67 68 -69 26 1 2 3 4 -5 70 0
66 -67 68 -69 26 1 2 3 -4 5 207 0
66 -67 68 -69 26 1 2 3 -4 -5 100 0
66 -67 68 -69 26 1 2 -3 4 5 197 0
66 -67 68 -69 26 1 2 -3 4 -5 223 0
66 -67 68 -69 26 1 2 -3 -4 5 91 0
66 -67 68 -69 26 1 2 -3 -4 -5 115 0
66 -67 68 -69 26 1 -2 3 4 5 107 0
66 -67 68 -69 26 1 -2 3 4 -5 232 0
66 -67 68 -69 26 1 -2 3 -4 5 199 0
66 -67 68 -69 26 1 -2 3 -4 -5 111 0
66 -67 68 -69 26 1 -2 -3 4 5 132 0
66 -67 68 -69 26 1 -2 -3 4 -5 149 0
66 -67 68 -69 26 1 -2 -3 -4 5 177 0
66 -67 68 -69 26 1 -2 -3 -4 -5 155 0
66 -67 68 -69 26 -1 2 3 4 5 183 0
66 -67 68 -69 26 -1 2 3 4 -5 172 0
66 -67 68 -69 26 -1 2 3 -4 5 238 0
66 -67 68 -69 26 -1 2 3 -4 -5 238 0
66 -67 68 -69 -26 1 2 3 4 5 242 0
66 -67 68 -69 -26 1 2 3 4 -5 200 0
66 -67 68 -69 -26 1 2 3 -4 5 180 0
66 -67 68 -69 -26 1 2 3 -4 -5 173 0
66 -67 68 -69 -26 1 2 -3 4 5 194 0
66 -67 68 -69 -26 1 2 -3 4 -5 233 0
66 -67 68 -69 -26 1 2 -3 -4 5 150 0
66 -67 68 -69 -26 1 2 -3 -4 -5 189 0
66 -67 68 -69 -26 1 -2 3 4 5 196 0
66 -67 68 -69 -26 1 -2 3 4 -5 108 0
66 -67 68 -69 -26 1 -2 3 -4 5 84 0
66 -67 68 -69 -26 1 -2 3 -4 -5 163 0
66 -67 68 -69 -26 1 -2 -3 4 5 119 0
66 -67 68 -69 -26 1 -2 -3 4 -5 234 0
66 -67 68 -69 -26 1 -2 -3 -4 5 146 0
66 -67 68 -69 -26 1 -2 -3 -4 -5 209 0
66 -67 68 -69 -26 -1 2 3 4 5 238 0
66 -67 68 -69 -26 -1 2 3 4 -5 70 0
66 -67 68 -69 -26 -1 2 3 -4 5 238 0
66 -67 68 -69 -26 -1 2 3 -4 -5 70 0
66 -67 -68 69 26 1 2 3 4 5 70 0
66 -67 -68 69 26 1 2 3 4 -5 70 0
66 -67 -68 69 26 1 2 3 -4 5 207 0
66 -67 -68 69 26 1 2 3 -4 -5 100 0
66 -67 -68 69 26 1 2 -3 4 5 197 0
66 -67 -68 69 26 1 2 -3 4 -5 120 0
66 -67 -68 69 26 1 2 -3 -4 5 140 0
66 -67 -68 69 26 1 2 -3 -4 -5 190 0
66 -67 -68 69 26 1 -2 3 4 5 222 0
66 -67 -68 69 26 1 -2 3 4 -5 81 0
66 -67 -68 69 26 1 -2 3 -4 5 245 0
66 -67 -68 69 26 1 -2 3 -4 -5 98 0
66 -67 -68 69 26 1 -2 -3 4 5 248 0
66 -67 -68 69 26 1 -2 -3 4 -5 235 0
66 -67 -68 69 26 1 -2 -3 -4 5 137 0
66 -67 -68 69 26 1 -2 -3 -4 -5 238 0
66 -67 -68 69 26 -1 2 3 4 5 121 0
66 -67 -68 69 26 -1 2 3 4 -5 122 0
66 -67 -68 69 26 -1 2 3 -4 5 238 0
66 -67 -68 69 26 -1 2 3 -4 -5 238 0
66 -67 -68 69 -26 1 2 3 4 5 144 0
66 -67 -68 69 -26 1 2 3 4 -5 175 0
66 -67 -68 69 -26 1 2 3 -4 5 178 0
66 -67 -68 69 -26 1 2 3 -4 -5 123 0
66 -67 -68 69 -26 1 2 -3 4 5 179 0
66 -67 -68 69 -26 1 2 -3 4 -5 201 0
66 -67 -68 69 -26 1 2 -3 -4 5 241 0
66 -67 -68 69 -26 1 2 -3 -4 -5 151 0
66 -67 -68 69 -26 1 -2 3 4 5 192 0
66 -67 -68 69 -26 1 -2 3 4 -5 239 0
66 -67 -68 69 -26 1 -2 3 -4 5 142 0
66 -67 -68 69 -26 1 -2 3 -4 -5 135 0
66 -67 -68 69 -26 1 -2 -3 4 5 231 0
66 -67 -68 69 -26 1 -2 -3 4 -5 123 0
66 -67 -68 69 -26 1 -2 -3 -4 5 198 0
66 -67 -68 69 -26 1 -2 -3 -4 -5 228 0
66 -67 -68 69 -26 -1 2 3 4 5 238 0
66 -67 -68 69 -26 -1 2 3 4 -5 70 0
66 -67 -68 69 -26 -1 2 3 -4 5 229 0
66 -67 -68 69 -26 -1 2 3 -4 -5 70 0
66 -67 -68 -69 26 1 2 3 4 5 70 0
66 -67 -68 -69 26 1 2 3 4 -5 70 0
66 -67 -68 -69 26 1 2 3 -4 5 207 0
66 -67 -68 -69 26 1 2 3 -4 -5 100 0
66 -67 -68 -69 26 1 2 -3 4 5 197 0
66 -67 -68 -69 26 1 2 -3 4 -5 120 0
66 -67 -68 -69 26 1 2 -3 -4 5 158 0
66 -67 -68 -69 26 1 2 -3 -4 -5 190 0
66 -67 -68 -69 26 1 -2 3 4 5 236 0
66 -67 -68 -69 26 1 -2 3 4 -5 182 0
66 -67 -68 -69 26 1 -2 3 -4 5 206 0
66 -67 -68 -69 26 1 -2 3 -4 -5 208 0
66 -67 -68 -69 26 1 -2 -3 4 5 205 0
66 -67 -68 -69 26 1 -2 -3 4 -5 244 0
66 -67 -68 -69 26 1 -2 -3 -4 5 94 0
66 -67 -68 -69 26 1 -2 -3 -4 -5 160 0
66 -67 -68 -69 26 -1 2 3 4 5 121 0
66 -67 -68 -69 26 -1 2 3 4 -5 122 0
66 -67 -68 -69 26 -1 2 3 -4 5 238 0
66 -67 -68 -69 26 -1 2 3 -4 -5 238 0
66 -67 -68 -69 -26 1 2 3 4 5 100 0
66 -67 -68 -69 -26 1 2 3 4 -5 92 0
66 -67 -68 -69 -26 1 2 3 -4 5 134 0
66 -67 -68 -69 -26 1 2 3 -4 -5 156 0
66 -67 -68 -69 -26 1 2 -3 4 5 224 0
66 -67 -68 -69 -26 1 2 -3 4 -5 159 0
66 -67 -68 -69 -26 1 2 -3 -4 5 105 0
66 -67 -68 -69 -26 1 2 -3 -4 -5 85 0
66 -67 -68 -69 -26 1 -2 3 4 5 86 0
66 -67 -68 -69 -26 1 -2 3 4 -5 239 0
66 -67 -68 -69 -26 1 -2 3 -4 5 114 0
66 -67 -68 -69 -26 1 -2 3 -4 -5 87 0
66 -67 -68 -69 -26 1 -2 -3 4 5 128 0
66 -67 -68 -69 -26 1 -2 -3 4 -5 123 0
66 -67 -68 -69 -26 1 -2 -3 -4 5 198 0
66 -67 -68 -69 -26 1 -2 -3 -4 -5 228 0
66 -67 -68 -69 -26 -1 2 3 4 5 238 0
66 -67 -68 -69 -26 -1 2 3 4 -5 70 0
66 -67 -68 -69 -26 -1 2 3 -4 5 238 0
66 -67 -68 -69 -26 -1 2 3 -4 -5 70 0
-66 67 68 69 26 1 2 3 4 5 70 0
-66 67 68 69 26 1 2 3 4 -5 70 0
-66 67 68 69 26 1 2 3 -4 5 207 0
-66 67 68 69 26 1 2 3 -4 -5 100 0
-66 67 68 69 26 1 2 -3 4 5 197 0
-66 67 68 69 26 1 2 -3 4 -5 120 0
-66 67 68 69 26 1 2 -3 -4 5 158 0
-66 67 68 69 26 1 2 -3 -4 -5 218 0
-66 67 68 69 26 1 -2 3 4 5 243 0
-66 67 68 69 26 1 -2 3 4 -5 182 0
-66 67 68 69 26 1 -2 3 -4 5 206 0
-66 67 68 69 26 1 -2 3 -4 -5 208 0
-66 67 68 69 26 1 -2 -3 4 5 205 0
-66 67 68 69 26 1 -2 -3 4 -5 244 0
-66 67 68 69 26 1 -2 -3 -4 5 94 0
-66 67 68 69 26 1 -2 -3 -4 -5 160 0
-66 67 68 69 26 -1 2 3 4 5 121 0
-66 67 68 69 26 -1 2 3 4 -5 122 0
-66 67 68 69 26 -1 2 3 -4 5 238 0
-66 67 68 69 26 -1 2 3 -4 -5 238 0
-66 67 68 69 -26 1 2 3 4 5 100 0
-66 67 68 69 -26 1 2 3 4 -5 175 0
-66 67 68 69 -26 1 2 3 -4 5 134 0
-66 67 68 69 -26 1 2 3 -4 -5 101 0
-66 67 68 69 -26 1 2 -3 4 5 104 0
-66 67 68 69 -26 1 2 -3 4 -5 136 0
-66 67 68 69 -26 1 2 -3 -4 5 195 0
-66 67 68 69 -26 1 2 -3 -4 -5 237 0
-66 67 68 69 -26 1 -2 3 4 5 202 0
-66 67 68 69 -26 1 -2 3 4 -5 98 0
-66 67 68 69 -26 1 -2 3 -4 5 101 0
-66 67 68 69 -26 1 -2 3 -4 -5 240 0
-66 67 68 69 -26 1 -2 -3 4 5 128 0
-66 67 68 69 -26 1 -2 -3 4 -5 101 0
-66 67 68 69 -26 1 -2 -3 -4 5 226 0
-66 67 68 69 -26 1 -2 -3 -4 -5 228 0
-66 67 68 69 -26 -1 2 3 4 5 238 0
-66 67 68 69 -26 -1 2 3 4 -5 70 0
-66 67 68 69 -26 -1 2 3 -4 5 238 0
-66 67 68 69 -26 -1 2 3 -4 -5 70 0
-66 67 68 -69 26 1 2 3 4 5 70 0
-66 67 68 -69 26 1 2 3 4 -5 70 0
-66 67 68 -69 26 1 2 3 -4 5 207 0
-66 67 68 -69 26 1 2 3 -4 -5 100 0
-66 67 68 -69 26 1 2 -3 4 5 197 0
-66 67 68 -69 26 1 2 -3 4 -5 120 0
-66 67 68 -69 26 1 2 -3 -4 5 158 0
-66 67 68 -69 26 1 2 -3 -4 -5 218 0
-66 67 68 -69 26 1 -2 3 4 5 243 0
-66 67 68 -69 26 1 -2 3 4 -5 182 0
-66 67 68 -69 26 1 -2 3 -4 5 206 0
-66 67 68 -69 26 1 -2 3 -4 -5 208 0
-66 67 68 -69 26 1 -2 -3 4 5 205 0
-66 67 68 -69 26 1 -2 -3 4 -5 244 0
-66 67 68 -69 26 1 -2 -3 -4 5 94 0
-66 67 68 -69 26 1 -2 -3 -4 -5 160 0
-66 67 68 -69 26 -1 2 3 4 5 121 0
-66 67 68 -69 26 -1 2 3 4 -5 122 0
-66 67 68 -69 26 -1 2 3 -4 5 238 0
-66 67 68 -69 26 -1 2 3 -4 -5 238 0
-66 67 68 -69 -26 1 2 3 4 5 100 0
-66 67 68 -69 -26 1 2 3 4 -5 175 0
-66 67 68 -69 -26 1 2 3 -4 5 134 0
-66 67 68 -69 -26 1 2 3 -4 -5 123 0
-66 67 68 -69 -26 1 2 -3 4 5 121 0
-66 67 68 -69 -26 1 2 -3 4 -5 136 0
-66 67 68 -69 -26 1 2 -3 -4 5 95 0
-66 67 68 -69 -26 1 2 -3 -4 -5 138 0
-66 67 68 -69 -26 1 -2 3 4 5 208 0
-66 67 68 -69 -26 1 -2 3 4 -5 204 0
-66 67 68 -69 -26 1 -2 3 -4 5 89 0
-66 67 68 -69 -26 1 -2 3 -4 -5 161 0
-66 67 68 -69 -26 1 -2 -3 4 5 128 0
-66 67 68 -69 -26 1 -2 -3 4 -5 101 0
-66 67 68 -69 -26 1 -2 -3 -4 5 226 0
-66 67 68 -69 -26 1 -2 -3 -4 -5 209 0
-66 67 68 -69 -26 -1 2 3 4 5 229 0
-66 67 68 -69 -26 -1 2 3 4 -5 70 0
-66 67 68 -69 -26 -1 2 3 -4 5 238 0
-66 67 68 -69 -26 -1 2 3 -4 -5 70 0
-66 67 -68 69 26 1 2 3 4 5 70 0
-66 67 -68 69 26 1 2 3 4 -5 70 0
-66 67 -68 69 26 1 2 3 -4 5 207 0
-66 67 -68 69 26 1 2 3 -4 -5 100 0
-66 67 -68 69 26 1 2 -3 4 5 197 0
-66 67 -68 69 26 1 2 -3 4 -5 120 0
-66 67 -68 69 26 1 2 -3 -4 5 158 0
-66 67 -68 69 26 1 2 -3 -4 -5 218 0
-66 67 -68 69 26 1 -2 3 4 5 243 0
-66 67 -68 69 26 1 -2 3 4 -5 182 0
-66 67 -68 69 26 1 -2 3 -4 5 206 0
-66 67 -68 69 26 1 -2 3 -4 -5 208 0
-66 67 -68 69 26 1 -2 -3 4 5 205 0
-66 67 -68 69 26 1 -2 -3 4 -5 244 0
-66 67 -68 69 26 1 -2 -3 -4 5 94 0
-66 67 -68 69 26 1 -2 -3 -4 -5 160 0
-66 67 -68 69 26 -1 2 3 4 5 121 0
-66 67 -68 69 26 -1 2 3 4 -5 122 0
-66 67 -68 69 26 -1 2 3 -4 5 238 0
-66 67 -68 69 26 -1 2 3 -4 -5 238 0
-66 67 -68 69 -26 1 2 3 4 5 100 0
-66 67 -68 69 -26 1 2 3 4 -5 175 0
-66 67 -68 69 -26 1 2 3 -4 5 191 0
-66 67 -68 69 -26 1 2 3 -4 -5 89 0
-66 67 -68 69 -26 1 2 -3 4 5 153 0
-66 67 -68 69 -26 1 2 -3 4 -5 136 0
-66 67 -68 69 -26 1 2 -3 -4 5 113 0
-66 67 -68 69 -26 1 2 -3 -4 -5 110 0
-66 67 -68 69 -26 1 -2 3 4 5 141 0
-66 67 -68 69 -26 1 -2 3 4 -5 143 0
-66 67 -68 69 -26 1 -2 3 -4 5 96 0
-66 67 -68 69 -26 1 -2 3 -4 -5 157 0
-66 67 -68 69 -26 1 -2 -3 4 5 128 0
-66 67 -68 69 -26 1 -2 -3 4 -5 101 0
-66 67 -68 69 -26 1 -2 -3 -4 5 226 0
-66 67 -68 69 -26 1 -2 -3 -4 -5 228 0
-66 67 -68 69 -26 -1 2 3 4 5 238 0
-66 67 -68 69 -26 -1 2 3 4 -5 70 0
-66 67 -68 69 -26 -1 2 3 -4 5 238 0
-66 67 -68 69 -26 -1 2 3 -4 -5 70 0
-66 67 -68 -69 26 1 2 3 4 5 70 0
-66 67 -68 -69 26 1 2 3 4 -5 70 0
-66 67 -68 -69 26 1 2 3 -4 5 207 0
-66 67 -68 -69 26 1 2 3 -4 -5 100 0
-66 67 -68 -69 26 1 2 -3 4 5 197 0
-66 67 -68 -69 26 1 2 -3 4 -5 120 0
-66 67 -68 -69 26 1 2 -3 -4 5 158 0
-66 67 -68 -69 26 1 2 -3 -4 -5 218 0
-66 67 -68 -69 26 1 -2 3 4 5 243 0
-66 67 -68 -69 26 1 -2 3 4 -5 182 0
-66 67 -68 -69 26 1 -2 3 -4 5 206 0
-66 67 -68 -69 26 1 -2 3 -4 -5 208 0
-66 67 -68 -69 26 1 -2 -3 4 5 205 0
-66 67 -68 -69 26 1 -2 -3 4 -5 244 0
-66 67 -68 -69 26 1 -2 -3 -4 5 94 0
-66 67 -68 -69 26 1 -2 -3 -4 -5 160 0
-66 67 -68 -69 26 -1 2 3 4 5 121 0
-66 67 -68 -69 26 -1 2 3 4 -5 122 0
-66 67 -68 -69 26 -1 2 3 -4 5 238 0
-66 67 -68 -69 26 -1 2 3 -4 -5 238 0
-66 67 -68 -69 -26 1 2 3 4 5 100 0
-66 67 -68 -69 -26 1 2 3 4 -5 175 0
-66 67 -68 -69 -26 1 2 3 -4 5 134 0
-66 67 -68 -69 -26 1 2 3 -4 -5 89 0
-66 67 -68 -69 -26 1 2 -3 4 5 153 0
-66 67 -68 -69 -26 1 2 -3 4 -5 109 0
-66 67 -68 -69 -26 1 2 -3 -4 5 95 0
-66 67 -68 -69 -26 1 2 -3 -4 -5 110 0
-66 67 -68 -69 -26 1 -2 3 4 5 169 0
-66 67 -68 -69 -26 1 -2 3 4 -5 204 0
-66 67 -68 -69 -26 1 -2 3 -4 5 89 0
-66 67 -68 -69 -26 1 -2 3 -4 -5 240 0
-66 67 -68 -69 -26 1 -2 -3 4 5 128 0
-66 67 -68 -69 -26 1 -2 -3 4 -5 101 0
-66 67 -68 -69 -26 1 -2 -3 -4 5 226 0
-66 67 -68 -69 -26 1 -2 -3 -4 -5 228 0
-66 67 -68 -69 -26 -1 2 3 4 5 238 0
-66 67 -68 -69 -26 -1 2 3 4 -5 70 0
-66 67 -68 -69 -26 -1 2 3 -4 5 238 0
-66 67 -68 -69 -26 -1 2 3 -4 -5 70 0
-66 -67 68 69 26 1 2 3 4 5 70 0
-66 -67 68 69 26 1 2 3 4 -5 70 0
-66 -67 68 69 26 1 2 3 -4 5 207 0
-66 -67 68 69 26 1 2 3 -4 -5 100 0
-66 -67 68 69 26 1 2 -3 4 5 197 0
-66 -67 68 69 26 1 2 -3 4 -5 120 0
-66 -67 68 69 26 1 2 -3 -4 5 158 0
-66 -67 68 69 26 1 2 -3 -4 -5 218 0
-66 -67 68 69 26 1 -2 3 4 5 243 0
-66 -67 68 69 26 1 -2 3 4 -5 182 0
-66 -67 68 69 26 1 -2 3 -4 5 206 0
-66 -67 68 69 26 1 -2 3 -4 -5 208 0
-66 -67 68 69 26 1 -2 -3 4 5 205 0
-66 -67 68 69 26 1 -2 -3 4 -5 244 0
-66 -67 68 69 26 1 -2 -3 -4 5 94 0
-66 -67 68 69 26 1 -2 -3 -4 -5 160 0
-66 -67 68 69 26 -1 2 3 4 5 121 0
-66 -67 68 69 26 -1 2 3 4 -5 122 0
-66 -67 68 69 26 -1 2 3 -4 5 238 0
-66 -67 68 69 26 -1 2 3 -4 -5 238 0
-66 -67 68 69 -26 1 2 3 4 5 242 0
-66 -67 68 69 -26 1 2 3 4 -5 175 0
-66 -67 68 69 -26 1 2 3 -4 5 134 0
-66 -67 68 69 -26 1 2 3 -4 -5 89 0
-66 -67 68 69 -26 1 2 -3 4 5 153 0
-66 -67 68 69 -26 1 2 -3 4 -5 109 0
-66 -67 68 69 -26 1 2 -3 -4 5 95 0
-66 -67 68 69 -26 1 2 -3 -4 -5 93 0
-66 -67 68 69 -26 1 -2 3 4 5 169 0
-66 -67 68 69 -26 1 -2 3 4 -5 227 0
-66 -67 68 69 -26 1 -2 3 -4 5 89 0
-66 -67 68 69 -26 1 -2 3 -4 -5 248 0
-66 -67 68 69 -26 1 -2 -3 4 5 128 0
-66 -67 68 69 -26 1 -2 -3 4 -5 101 0
-66 -67 68 69 -26 1 -2 -3 -4 5 226 0
-66 -67 68 69 -26 1 -2 -3 -4 -5 228 0
-66 -67 68 69 -26 -1 2 3 4 5 238 0
-66 -67 68 69 -26 -1 2 3 4 -5 70 0
-66 -67 68 69 -26 -1 2 3 -4 5 238 0
-66 -67 68 69 -26 -1 2 3 -4 -5 70 0
-66 -67 68 -69 26 1 2 3 4 5 70 0
-66 -67 68 -69 26 1 2 3 4 -5 70 0
-66 -67 68 -69 26 1 2 3 -4 5 207 0
-66 -67 68 -69 26 1 2 3 -4 -5 100 0
-66 -67 68 -69 26 1 2 -3 4 5 197 0
-66 -67 68 -69 26 1 2 -3 4 -5 120 0
-66 -67 68 -69 26 1 2 -3 -4 5 158 0
-66 -67 68 -69 26 1 2 -3 -4 -5 218 0
-66 -67 68 -69 26 1 -2 3 4 5 243 0
-66 -67 68 -69 26 1 -2 3 4 -5 182 0
-66 -67 68 -69 26 1 -2 3 -4 5 206 0
-66 -67 68 -69 26 1 -2 3 -4 -5 208 0
-66 -67 68 -69 26 1 -2 -3 4 5 205 0
-66 -67 68 -69 26 1 -2 -3 4 -5 244 0
-66 -67 68 -69 26 1 -2 -3 -4 5 94 0
-66 -67 68 -69 26 1 -2 -3 -4 -5 160 0
-66 -67 68 -69 26 -1 2 3 4 5 121 0
-66 -67 68 -69 26 -1 2 3 4 -5 122 0
-66 -67 68 -69 26 -1 2 3 -4 5 238 0
-66 -67 68 -69 26 -1 2 3 -4 -5 238 0
-66 -67 68 -69 -26 1 2 3 4 5 100 0
-66 -67 68 -69 -26 1 2 3 4 -5 175 0
-66 -67 68 -69 -26 1 2 3 -4 5 134 0
-66 -67 68 -69 -26 1 2 3 -4 -5 89 0
-66 -67 68 -69 -26 1 2 -3 4 5 153 0
-66 -67 68 -69 -26 1 2 -3 4 -5 109 0
-66 -67 68 -69 -26 1 2 -3 -4 5 95 0
-66 -67 68 -69 -26 1 2 -3 -4 -5 110 0
-66 -67 68 -69 -26 1 -2 3 4 5 208 0
-66 -67 68 -69 -26 1 -2 3 4 -5 227 0
-66 -67 68 -69 -26 1 -2 3 -4 5 83 0
-66 -67 68 -69 -26 1 -2 3 -4 -5 161 0
-66 -67 68 -69 -26 1 -2 -3 4 5 128 0
-66 -67 68 -69 -26 1 -2 -3 4 -5 101 0
-66 -67 68 -69 -26 1 -2 -3 -4 5 226 0
-66 -67 68 -69 -26 1 -2 -3 -4 -5 228 0
-66 -67 68 -69 -26 -1 2 3 4 5 238 0
-66 -67 68 -69 -26 -1 2 3 4 -5 70 0
-66 -67 68 -69 -26 -1 2 3 -4 5 238 0
-66 -67 68 -69 -26 -1 2 3 -4 -5 70 0
-66 -67 -68 69 26 1 2 3 4 5 70 0
-66 -67 -68 69 26 1 2 3 4 -5 70 0
-66 -67 -68 69 26 1 2 3 -4 5 207 0
-66 -67 -68 69 26 1 2 3 -4 -5 100 0
-66 -67 -68 69 26 1 2 -3 4 5 197 0
-66 -67 -68 69 26 1 2 -3 4 -5 120 0
-66 -67 -68 69 26 1 2 -3 -4 5 158 0
-66 -67 -68 69 26 1 2 -3 -4 -5 218 0
-66 -67 -68 69 26 1 -2 3 4 5 243 0
-66 -67 -68 69 26 1 -2 3 4 -5 182 0
-66 -67 -68 69 26 1 -2 3 -4 5 206 0
-66 -67 -68 69 26 1 -2 3 -4 -5 208 0
-66 -67 -68 69 26 1 -2 -3 4 5 205 0
-66 -67 -68 69 26 1 -2 -3 4 -5 244 0
-66 -67 -68 69 26 1 -2 -3 -4 5 94 0
-66 -67 -68 69 26 1 -2 -3 -4 -5 160 0
-66 -67 -68 69 26 -1 2 3 4 5 121 0
-66 -67 -68 69 26 -1 2 3 4 -5 122 0
-66 -67 -68 69 26 -1 2 3 -4 5 238 0
-66 -67 -68 69 26 -1 2 3 -4 -5 238 0
-66 -67 -68 69 -26 1 2 3 4 5 100 0
-66 -67 -68 69 -26 1 2 3 4 -5 175 0
-66 -67 -68 69 -26 1 2 3 -4 5 134 0
-66 -67 -68 69 -26 1 2 3 -4 -5 89 0
-66 -67 -68 69 -26 1 2 -3 4 5 153 0
-66 -67 -68 69 -26 1 2 -3 4 -5 109 0
-66 -67 -68 69 -26 1 2 -3 -4 5 95 0
-66 -67 -68 69 -26 1 2 -3 -4 -5 93 0
-66 -67 -68 69 -26 1 -2 3 4 5 208 0
-66 -67 -68 69 -26 1 -2 3 4 -5 227 0
-66 -67 -68 69 -26 1 -2 3 -4 5 89 0
-66 -67 -68 69 -26 1 -2 3 -4 -5 161 0
-66 -67 -68 69 -26 1 -2 -3 4 5 128 0
-66 -67 -68 69 -26 1 -2 -3 4 -5 101 0
-66 -67 -68 69 -26 1 -2 -3 -4 5 226 0
-66 -67 -68 69 -26 1 -2 -3 -4 -5 228 0
-66 -67 -68 69 -26 -1 2 3 4 5 238 0
-66 -67 -68 69 -26 -1 2 3 4 -5 70 0
-66 -67 -68 69 -26 -1 2 3 -4 5 238 0
-66 -67 -68 69 -26 -1 2 3 -4 -5 70 0
-66 -67 -68 -69 26 1 2 3 4 5 70 0
-66 -67 -68 -69 26 1 2 3 4 -5 70 0
-66 -67 -68 -69 26 1 2 3 -4 5 207 0
-66 -67 -68 -69 26 1 2 3 -4 -5 100 0
-66 -67 -68 -69 26 1 2 -3 4 5 197 0
-66 -67 -68 -69 26 1 2 -3 4 -5 120 0
-66 -67 -68 -69 26 1 2 -3 -4 5 158 0
-66 -67 -68 -69 26 1 2 -3 -4 -5 218 0
-66 -67 -68 -69 26 1 -2 3 4 5 243 0
-66 -67 -68 -69 26 1 -2 3 4 -5 182 0
-66 -67 -68 -69 26 1 -2 3 -4 5 206 0
-66 -67 -68 -69 26 1 -2 3 -4 -5 208 0
-66 -67 -68 -69 26 1 -2 -3 4 5 205 0
-66 -67 -68 -69 26 1 -2 -3 4 -5 244 0
-66 -67 -68 -69 26 1 -2 -3 -4 5 94 0
-66 -67 -68 -69 26 1 -2 -3 -4 -5 160 0
-66 -67 -68 -69 26 -1 2 3 4 5 121 0
-66 -67 -68 -69 26 -1 2 3 4 -5 122 0
-66 -67 -68 -69 26 -1 2 3 -4 5 238 0
-66 -67 -68 -69 26 -1 2 3 -4 -5 238 0
-66 -67 -68 -69 -26 1 2 3 4 5 100 0
-66 -67 -68 -69 -26 1 2 3 4 -5 175 0
-66 -67 -68 -69 -26 1 2 3 -4 5 134 0
-66 -67 -68 -69 -26 1 2 3 -4 -5 89 0
-66 -67 -68 -69 -26 1 2 -3 4 5 153 0
-66 -67 -68 -69 -26 1 2 -3 4 -5 136 0
-66 -67 -68 -69 -26 1 2 -3 -4 5 95 0
-66 -67 -68 -69 -26 1 2 -3 -4 -5 93 0
-66 -67 -68 -69 -26 1 -2 3 4 5 169 0
-66 -67 -68 -69 -26 1 -2 3 4 -5 227 0
-66 -67 -68 -69 -26 1 -2 3 -4 5 83 0
-66 -67 -68 -69 -26 1 -2 3 -4 -5 161 0
-66 -67 -68 -69 -26 1 -2 -3 4 5 128 0
-66 -67 -68 -69 -26 1 -2 -3 4 -5 101 0
-66 -67 -68 -69 -26 1 -2 -3 -4 5 226 0
-66 -67 -68 -69 -26 1 -2 -3 -4 -5 228 0
-66 -67 -68 -69 -26 -1 2 3 4 5 238 0
-66 -67 -68 -69 -26 -1 2 3 4 -5 70 0
-66 -67 -68 -69 -26 -1 2 3 -4 5 238 0
-66 -67 -68 -69 -26 -1 2 3 -4 -5 70 0
